data/input/generated/341.dat
set P := 1 2 3 4 5 6 7 8 9 10 11 12 13 14 15 16 17 18;

set I := 1;

param 
v [*,*]
:      1       :=
1    0.7974
2    0.0966
3    0.904
4    0.3496
5    0.766
6    0.8751
7    0.9784
8    0.2169
9    0.2606
10   0.609
11   0.8115
12   0.9188
13   0.632
14   0.2503
15   0.2288
16   0.7134
17   0.0941
18   0.8868
;

