data/mps_files/pEF1/341.mps
NAME foo
ROWS
 N  OBJ
 E  allocateEach[1]
COLUMNS
    z         OBJ       1
    MARKER    'MARKER'                 'INTORG'
    x[1,1]    allocateEach[1]  1
    x[2,1]    allocateEach[1]  1
    x[3,1]    allocateEach[1]  1
    x[4,1]    allocateEach[1]  1
    x[5,1]    allocateEach[1]  1
    x[6,1]    allocateEach[1]  1
    x[7,1]    allocateEach[1]  1
    x[8,1]    allocateEach[1]  1
    x[9,1]    allocateEach[1]  1
    x[10,1]   allocateEach[1]  1
    x[11,1]   allocateEach[1]  1
    x[12,1]   allocateEach[1]  1
    x[13,1]   allocateEach[1]  1
    x[14,1]   allocateEach[1]  1
    x[15,1]   allocateEach[1]  1
    x[16,1]   allocateEach[1]  1
    x[17,1]   allocateEach[1]  1
    x[18,1]   allocateEach[1]  1
    MARKER    'MARKER'                 'INTEND'
RHS
    RHS1      allocateEach[1]  1
BOUNDS
 UP BND1      z         1
 BV BND1      x[1,1]  
 BV BND1      x[2,1]  
 BV BND1      x[3,1]  
 BV BND1      x[4,1]  
 BV BND1      x[5,1]  
 BV BND1      x[6,1]  
 BV BND1      x[7,1]  
 BV BND1      x[8,1]  
 BV BND1      x[9,1]  
 BV BND1      x[10,1] 
 BV BND1      x[11,1] 
 BV BND1      x[12,1] 
 BV BND1      x[13,1] 
 BV BND1      x[14,1] 
 BV BND1      x[15,1] 
 BV BND1      x[16,1] 
 BV BND1      x[17,1] 
 BV BND1      x[18,1] 
ENDATA
